<number of tasks>
20


<number of equipment>
5


<cycle time>
1000


<investment costs>
1,6807
2,23977
3,17250
4,10320
5,29766


<task times>
1,-1,97,152,254,-1
2,-1,113,183,-1,164
3,-1,96,158,243,-1
4,-1,111,164,-1,50
5,-1,147,185,-1,103
6,-1,102,143,241,-1
7,-1,107,164,-1,35
8,143,-1,-1,-1,53
9,-1,85,82,-1,26
10,203,-1,-1,-1,31
11,-1,111,185,251,-1
12,-1,97,131,207,-1
13,256,-1,-1,-1,30
14,-1,164,183,258,-1
15,-1,110,168,204,-1
16,-1,80,166,106,-1
17,-1,121,173,261,-1
18,-1,105,244,290,-1
19,-1,123,178,-1,31
20,-1,96,163,-1,46


<precedence relations>
1,6
1,7
1,19
2,5
3,5
3,8
4,7
4,10
4,17
5,9
6,17
7,20
8,12
9,10
9,11
9,12
9,13
10,16
11,14
11,15
11,17
12,14
12,15
12,16
13,16
13,20
14,18
14,19
15,19
15,20
16,18
16,19


<task types>
1,3
2,2
3,3
4,2
5,2
6,3
7,2
8,1
9,2
10,1
11,3
12,3
13,1
14,3
15,3
16,3
17,3
18,3
19,2
20,2


<line depot>
1,3
2,0
3,4
4,0
5,0


<processing costs>
1,7200
2,14400
3,14400
4,7200
5,14400


<saving costs>
1,680
2,2397
3,1725
4,1032
5,2976


<end>
